language ESSENCE' 1.0

letting C_FunctionND be
        [[0, 0, 0, 0, 0, 0, 0, 0, 0, 0, 0, 0, 0, 0, 0, 0, 0, 0, 0, 0, 0, 0; int(0..21)],
         [1, 0, 0, 0, 0, 0, 0, 0, 0, 0, 0, 0, 0, 0, 0, 0, 0, 0, 0, 0, 0, 0; int(0..21)],
         [1, 0, 0, 0, 0, 0, 0, 0, 0, 0, 0, 0, 0, 0, 0, 0, 0, 0, 0, 0, 0, 0; int(0..21)],
         [1, 0, 0, 0, 0, 0, 0, 0, 0, 0, 0, 0, 0, 0, 0, 0, 0, 0, 0, 0, 0, 0; int(0..21)],
         [1, 0, 0, 0, 0, 0, 0, 0, 0, 0, 0, 0, 0, 0, 0, 0, 0, 0, 0, 0, 0, 0; int(0..21)],
         [1, 0, 0, 0, 0, 0, 0, 0, 0, 0, 0, 0, 0, 0, 0, 0, 0, 0, 0, 0, 0, 0; int(0..21)],
         [1, 0, 0, 0, 0, 0, 0, 0, 0, 0, 0, 0, 0, 0, 0, 0, 0, 0, 0, 0, 0, 0; int(0..21)],
         [1, 0, 0, 0, 0, 0, 0, 0, 0, 0, 0, 0, 0, 0, 0, 0, 0, 0, 0, 0, 0, 0; int(0..21)],
         [1, 0, 0, 0, 0, 0, 0, 0, 0, 0, 0, 0, 0, 0, 0, 0, 0, 0, 0, 0, 0, 0; int(0..21)],
         [1, 0, 0, 0, 0, 0, 0, 0, 0, 0, 0, 0, 0, 0, 0, 0, 0, 0, 0, 0, 0, 0; int(0..21)],
         [1, 0, 0, 0, 0, 0, 0, 0, 0, 0, 0, 0, 0, 0, 0, 0, 0, 0, 0, 0, 0, 0; int(0..21)],
         [0, 1, 1, 1, 1, 1, 1, 1, 1, 0, 1, 0, 0, 0, 0, 0, 0, 0, 0, 0, 0, 0; int(0..21)],
         [0, 1, 0, 0, 0, 0, 0, 0, 0, 1, 0, 0, 0, 0, 0, 0, 0, 0, 0, 0, 0, 0; int(0..21)],
         [0, 0, 1, 0, 0, 0, 0, 0, 0, 1, 0, 0, 0, 0, 0, 0, 0, 0, 0, 0, 0, 0; int(0..21)],
         [0, 0, 0, 1, 0, 0, 0, 0, 0, 1, 0, 0, 0, 0, 0, 0, 0, 0, 0, 0, 0, 0; int(0..21)],
         [0, 0, 0, 0, 1, 0, 0, 0, 0, 1, 0, 0, 0, 0, 0, 0, 0, 0, 0, 0, 0, 0; int(0..21)],
         [0, 0, 0, 0, 0, 1, 0, 0, 0, 1, 0, 0, 0, 0, 0, 0, 0, 0, 0, 0, 0, 0; int(0..21)],
         [0, 0, 0, 0, 0, 0, 1, 0, 0, 1, 0, 0, 0, 0, 0, 0, 0, 0, 0, 0, 0, 0; int(0..21)],
         [0, 0, 0, 0, 0, 0, 0, 1, 0, 1, 0, 0, 0, 0, 0, 0, 0, 0, 0, 0, 0, 0; int(0..21)],
         [0, 0, 0, 0, 0, 0, 0, 0, 1, 1, 0, 0, 0, 0, 0, 0, 0, 0, 0, 0, 0, 0; int(0..21)],
         [0, 0, 0, 0, 0, 0, 0, 0, 0, 1, 1, 0, 0, 0, 0, 0, 0, 0, 0, 0, 0, 0; int(0..21)],
         [0, 0, 0, 0, 0, 0, 0, 0, 0, 0, 0, 1, 1, 1, 1, 1, 1, 1, 1, 1, 1, 0; int(0..21)];
             int(0..21)]
$ Visualisation for C_FunctionND
$ 0 0 0 0 0 0 0 0 0 0 0 0 0 0 0 0 0 0 0 0 0 0
$ 1 0 0 0 0 0 0 0 0 0 0 0 0 0 0 0 0 0 0 0 0 0
$ 1 0 0 0 0 0 0 0 0 0 0 0 0 0 0 0 0 0 0 0 0 0
$ 1 0 0 0 0 0 0 0 0 0 0 0 0 0 0 0 0 0 0 0 0 0
$ 1 0 0 0 0 0 0 0 0 0 0 0 0 0 0 0 0 0 0 0 0 0
$ 1 0 0 0 0 0 0 0 0 0 0 0 0 0 0 0 0 0 0 0 0 0
$ 1 0 0 0 0 0 0 0 0 0 0 0 0 0 0 0 0 0 0 0 0 0
$ 1 0 0 0 0 0 0 0 0 0 0 0 0 0 0 0 0 0 0 0 0 0
$ 1 0 0 0 0 0 0 0 0 0 0 0 0 0 0 0 0 0 0 0 0 0
$ 1 0 0 0 0 0 0 0 0 0 0 0 0 0 0 0 0 0 0 0 0 0
$ 1 0 0 0 0 0 0 0 0 0 0 0 0 0 0 0 0 0 0 0 0 0
$ 0 1 1 1 1 1 1 1 1 0 1 0 0 0 0 0 0 0 0 0 0 0
$ 0 1 0 0 0 0 0 0 0 1 0 0 0 0 0 0 0 0 0 0 0 0
$ 0 0 1 0 0 0 0 0 0 1 0 0 0 0 0 0 0 0 0 0 0 0
$ 0 0 0 1 0 0 0 0 0 1 0 0 0 0 0 0 0 0 0 0 0 0
$ 0 0 0 0 1 0 0 0 0 1 0 0 0 0 0 0 0 0 0 0 0 0
$ 0 0 0 0 0 1 0 0 0 1 0 0 0 0 0 0 0 0 0 0 0 0
$ 0 0 0 0 0 0 1 0 0 1 0 0 0 0 0 0 0 0 0 0 0 0
$ 0 0 0 0 0 0 0 1 0 1 0 0 0 0 0 0 0 0 0 0 0 0
$ 0 0 0 0 0 0 0 0 1 1 0 0 0 0 0 0 0 0 0 0 0 0
$ 0 0 0 0 0 0 0 0 0 1 1 0 0 0 0 0 0 0 0 0 0 0
$ 0 0 0 0 0 0 0 0 0 0 0 1 1 1 1 1 1 1 1 1 1 0

letting J_FunctionND be
        [[0, 1, 2, 3, 4, 5, 6, 7, 8, 9, 10, 11, 12, 13, 14, 15, 16, 17, 18, 19, 20, 21; int(0..21)],
         [1, 1, 11, 11, 11, 11, 11, 11, 11, 12, 11, 11, 12, 21, 21, 21, 21, 21, 21, 21, 21, 21; int(0..21)],
         [2, 11, 2, 11, 11, 11, 11, 11, 11, 13, 11, 11, 21, 13, 21, 21, 21, 21, 21, 21, 21, 21; int(0..21)],
         [3, 11, 11, 3, 11, 11, 11, 11, 11, 14, 11, 11, 21, 21, 14, 21, 21, 21, 21, 21, 21, 21; int(0..21)],
         [4, 11, 11, 11, 4, 11, 11, 11, 11, 15, 11, 11, 21, 21, 21, 15, 21, 21, 21, 21, 21, 21; int(0..21)],
         [5, 11, 11, 11, 11, 5, 11, 11, 11, 16, 11, 11, 21, 21, 21, 21, 16, 21, 21, 21, 21, 21; int(0..21)],
         [6, 11, 11, 11, 11, 11, 6, 11, 11, 17, 11, 11, 21, 21, 21, 21, 21, 17, 21, 21, 21, 21; int(0..21)],
         [7, 11, 11, 11, 11, 11, 11, 7, 11, 18, 11, 11, 21, 21, 21, 21, 21, 21, 18, 21, 21, 21; int(0..21)],
         [8, 11, 11, 11, 11, 11, 11, 11, 8, 19, 11, 11, 21, 21, 21, 21, 21, 21, 21, 19, 21, 21; int(0..21)],
         [9, 12, 13, 14, 15, 16, 17, 18, 19, 9, 20, 21, 12, 13, 14, 15, 16, 17, 18, 19, 20, 21; int(0..21)],
         [10, 11, 11, 11, 11, 11, 11, 11, 11, 20, 10, 11, 21, 21, 21, 21, 21, 21, 21, 21, 20, 21; int(0..21)],
         [11, 11, 11, 11, 11, 11, 11, 11, 11, 21, 11, 11, 21, 21, 21, 21, 21, 21, 21, 21, 21, 21; int(0..21)],
         [12, 12, 21, 21, 21, 21, 21, 21, 21, 12, 21, 21, 12, 21, 21, 21, 21, 21, 21, 21, 21, 21; int(0..21)],
         [13, 21, 13, 21, 21, 21, 21, 21, 21, 13, 21, 21, 21, 13, 21, 21, 21, 21, 21, 21, 21, 21; int(0..21)],
         [14, 21, 21, 14, 21, 21, 21, 21, 21, 14, 21, 21, 21, 21, 14, 21, 21, 21, 21, 21, 21, 21; int(0..21)],
         [15, 21, 21, 21, 15, 21, 21, 21, 21, 15, 21, 21, 21, 21, 21, 15, 21, 21, 21, 21, 21, 21; int(0..21)],
         [16, 21, 21, 21, 21, 16, 21, 21, 21, 16, 21, 21, 21, 21, 21, 21, 16, 21, 21, 21, 21, 21; int(0..21)],
         [17, 21, 21, 21, 21, 21, 17, 21, 21, 17, 21, 21, 21, 21, 21, 21, 21, 17, 21, 21, 21, 21; int(0..21)],
         [18, 21, 21, 21, 21, 21, 21, 18, 21, 18, 21, 21, 21, 21, 21, 21, 21, 21, 18, 21, 21, 21; int(0..21)],
         [19, 21, 21, 21, 21, 21, 21, 21, 19, 19, 21, 21, 21, 21, 21, 21, 21, 21, 21, 19, 21, 21; int(0..21)],
         [20, 21, 21, 21, 21, 21, 21, 21, 21, 20, 20, 21, 21, 21, 21, 21, 21, 21, 21, 21, 20, 21; int(0..21)],
         [21, 21, 21, 21, 21, 21, 21, 21, 21, 21, 21, 21, 21, 21, 21, 21, 21, 21, 21, 21, 21, 21; int(0..21)];
             int(0..21)]
$ Visualisation for J_FunctionND
$  0  1  2  3  4  5  6  7  8  9 10 11 12 13 14 15 16 17 18 19 20 21
$  1  1 11 11 11 11 11 11 11 12 11 11 12 21 21 21 21 21 21 21 21 21
$  2 11  2 11 11 11 11 11 11 13 11 11 21 13 21 21 21 21 21 21 21 21
$  3 11 11  3 11 11 11 11 11 14 11 11 21 21 14 21 21 21 21 21 21 21
$  4 11 11 11  4 11 11 11 11 15 11 11 21 21 21 15 21 21 21 21 21 21
$  5 11 11 11 11  5 11 11 11 16 11 11 21 21 21 21 16 21 21 21 21 21
$  6 11 11 11 11 11  6 11 11 17 11 11 21 21 21 21 21 17 21 21 21 21
$  7 11 11 11 11 11 11  7 11 18 11 11 21 21 21 21 21 21 18 21 21 21
$  8 11 11 11 11 11 11 11  8 19 11 11 21 21 21 21 21 21 21 19 21 21
$  9 12 13 14 15 16 17 18 19  9 20 21 12 13 14 15 16 17 18 19 20 21
$ 10 11 11 11 11 11 11 11 11 20 10 11 21 21 21 21 21 21 21 21 20 21
$ 11 11 11 11 11 11 11 11 11 21 11 11 21 21 21 21 21 21 21 21 21 21
$ 12 12 21 21 21 21 21 21 21 12 21 21 12 21 21 21 21 21 21 21 21 21
$ 13 21 13 21 21 21 21 21 21 13 21 21 21 13 21 21 21 21 21 21 21 21
$ 14 21 21 14 21 21 21 21 21 14 21 21 21 21 14 21 21 21 21 21 21 21
$ 15 21 21 21 15 21 21 21 21 15 21 21 21 21 21 15 21 21 21 21 21 21
$ 16 21 21 21 21 16 21 21 21 16 21 21 21 21 21 21 16 21 21 21 21 21
$ 17 21 21 21 21 21 17 21 21 17 21 21 21 21 21 21 21 17 21 21 21 21
$ 18 21 21 21 21 21 21 18 21 18 21 21 21 21 21 21 21 21 18 21 21 21
$ 19 21 21 21 21 21 21 21 19 19 21 21 21 21 21 21 21 21 21 19 21 21
$ 20 21 21 21 21 21 21 21 21 20 20 21 21 21 21 21 21 21 21 21 20 21
$ 21 21 21 21 21 21 21 21 21 21 21 21 21 21 21 21 21 21 21 21 21 21

letting M_FunctionND be
        [[0, 0, 0, 0, 0, 0, 0, 0, 0, 0, 0, 0, 0, 0, 0, 0, 0, 0, 0, 0, 0, 0; int(0..21)],
         [0, 1, 0, 0, 0, 0, 0, 0, 0, 0, 0, 1, 1, 0, 0, 0, 0, 0, 0, 0, 0, 1; int(0..21)],
         [0, 0, 2, 0, 0, 0, 0, 0, 0, 0, 0, 2, 0, 2, 0, 0, 0, 0, 0, 0, 0, 2; int(0..21)],
         [0, 0, 0, 3, 0, 0, 0, 0, 0, 0, 0, 3, 0, 0, 3, 0, 0, 0, 0, 0, 0, 3; int(0..21)],
         [0, 0, 0, 0, 4, 0, 0, 0, 0, 0, 0, 4, 0, 0, 0, 4, 0, 0, 0, 0, 0, 4; int(0..21)],
         [0, 0, 0, 0, 0, 5, 0, 0, 0, 0, 0, 5, 0, 0, 0, 0, 5, 0, 0, 0, 0, 5; int(0..21)],
         [0, 0, 0, 0, 0, 0, 6, 0, 0, 0, 0, 6, 0, 0, 0, 0, 0, 6, 0, 0, 0, 6; int(0..21)],
         [0, 0, 0, 0, 0, 0, 0, 7, 0, 0, 0, 7, 0, 0, 0, 0, 0, 0, 7, 0, 0, 7; int(0..21)],
         [0, 0, 0, 0, 0, 0, 0, 0, 8, 0, 0, 8, 0, 0, 0, 0, 0, 0, 0, 8, 0, 8; int(0..21)],
         [0, 0, 0, 0, 0, 0, 0, 0, 0, 9, 0, 0, 9, 9, 9, 9, 9, 9, 9, 9, 9, 9; int(0..21)],
         [0, 0, 0, 0, 0, 0, 0, 0, 0, 0, 10, 10, 0, 0, 0, 0, 0, 0, 0, 0, 10, 10; int(0..21)],
         [0, 1, 2, 3, 4, 5, 6, 7, 8, 0, 10, 11, 1, 2, 3, 4, 5, 6, 7, 8, 10, 11; int(0..21)],
         [0, 1, 0, 0, 0, 0, 0, 0, 0, 9, 0, 1, 12, 9, 9, 9, 9, 9, 9, 9, 9, 12; int(0..21)],
         [0, 0, 2, 0, 0, 0, 0, 0, 0, 9, 0, 2, 9, 13, 9, 9, 9, 9, 9, 9, 9, 13; int(0..21)],
         [0, 0, 0, 3, 0, 0, 0, 0, 0, 9, 0, 3, 9, 9, 14, 9, 9, 9, 9, 9, 9, 14; int(0..21)],
         [0, 0, 0, 0, 4, 0, 0, 0, 0, 9, 0, 4, 9, 9, 9, 15, 9, 9, 9, 9, 9, 15; int(0..21)],
         [0, 0, 0, 0, 0, 5, 0, 0, 0, 9, 0, 5, 9, 9, 9, 9, 16, 9, 9, 9, 9, 16; int(0..21)],
         [0, 0, 0, 0, 0, 0, 6, 0, 0, 9, 0, 6, 9, 9, 9, 9, 9, 17, 9, 9, 9, 17; int(0..21)],
         [0, 0, 0, 0, 0, 0, 0, 7, 0, 9, 0, 7, 9, 9, 9, 9, 9, 9, 18, 9, 9, 18; int(0..21)],
         [0, 0, 0, 0, 0, 0, 0, 0, 8, 9, 0, 8, 9, 9, 9, 9, 9, 9, 9, 19, 9, 19; int(0..21)],
         [0, 0, 0, 0, 0, 0, 0, 0, 0, 9, 10, 10, 9, 9, 9, 9, 9, 9, 9, 9, 20, 20; int(0..21)],
         [0, 1, 2, 3, 4, 5, 6, 7, 8, 9, 10, 11, 12, 13, 14, 15, 16, 17, 18, 19, 20, 21; int(0..21)];
             int(0..21)]
$ Visualisation for M_FunctionND
$  0  0  0  0  0  0  0  0  0  0  0  0  0  0  0  0  0  0  0  0  0  0
$  0  1  0  0  0  0  0  0  0  0  0  1  1  0  0  0  0  0  0  0  0  1
$  0  0  2  0  0  0  0  0  0  0  0  2  0  2  0  0  0  0  0  0  0  2
$  0  0  0  3  0  0  0  0  0  0  0  3  0  0  3  0  0  0  0  0  0  3
$  0  0  0  0  4  0  0  0  0  0  0  4  0  0  0  4  0  0  0  0  0  4
$  0  0  0  0  0  5  0  0  0  0  0  5  0  0  0  0  5  0  0  0  0  5
$  0  0  0  0  0  0  6  0  0  0  0  6  0  0  0  0  0  6  0  0  0  6
$  0  0  0  0  0  0  0  7  0  0  0  7  0  0  0  0  0  0  7  0  0  7
$  0  0  0  0  0  0  0  0  8  0  0  8  0  0  0  0  0  0  0  8  0  8
$  0  0  0  0  0  0  0  0  0  9  0  0  9  9  9  9  9  9  9  9  9  9
$  0  0  0  0  0  0  0  0  0  0 10 10  0  0  0  0  0  0  0  0 10 10
$  0  1  2  3  4  5  6  7  8  0 10 11  1  2  3  4  5  6  7  8 10 11
$  0  1  0  0  0  0  0  0  0  9  0  1 12  9  9  9  9  9  9  9  9 12
$  0  0  2  0  0  0  0  0  0  9  0  2  9 13  9  9  9  9  9  9  9 13
$  0  0  0  3  0  0  0  0  0  9  0  3  9  9 14  9  9  9  9  9  9 14
$  0  0  0  0  4  0  0  0  0  9  0  4  9  9  9 15  9  9  9  9  9 15
$  0  0  0  0  0  5  0  0  0  9  0  5  9  9  9  9 16  9  9  9  9 16
$  0  0  0  0  0  0  6  0  0  9  0  6  9  9  9  9  9 17  9  9  9 17
$  0  0  0  0  0  0  0  7  0  9  0  7  9  9  9  9  9  9 18  9  9 18
$  0  0  0  0  0  0  0  0  8  9  0  8  9  9  9  9  9  9  9 19  9 19
$  0  0  0  0  0  0  0  0  0  9 10 10  9  9  9  9  9  9  9  9 20 20
$  0  1  2  3  4  5  6  7  8  9 10 11 12 13 14 15 16 17 18 19 20 21

letting R_Function1D be [0, 1, 1, 1, 1, 1, 1, 1, 1, 1, 1, 2, 2, 2, 2, 2, 2, 2, 2, 2, 2, 3; int(0..21)]
